p cnf 15 27
-1 0
8 0
-15 0
-11 0
-8 3 7 -9 0
13 0
-8 -5 0
3 1 11 14 0
1 3 4 -7 0
9 -4 12 15 0
6 0
7 0
1 0
-11 0
-4 -3 -1 15 0
9 -13 -7 7 0
9 -6 0
-7 13 0
10 12 -3 6 0
-15 3 -12 -9 0
11 -5 4 0
9 10 2 -4 0
-13 -11 0
-14 13 -10 -1 0
-3 -10 0
-3 -9 0
3 -13 5 6 0
